NAME: line_20_7
TYPE: TSP
COMMENT: line_20_7
DIMENSION: 20
EDGE_WEIGHT_TYPE: EUC_2D
NODE_COORD_SECTION
1 0.0 163.0
2 0.0 183.0
3 0.0 194.0
4 0.0 14.0
5 0.0 163.0
6 0.0 105.0
7 0.0 126.0
8 0.0 62.0
9 0.0 134.0
10 0.0 80.0
11 0.0 53.0
12 0.0 15.0
13 0.0 117.0
14 0.0 4.0
15 0.0 137.0
16 0.0 116.0
17 0.0 110.0
18 0.0 122.0
19 0.0 192.0
20 0.0 95.0
